(set-info :smt-lib-version 2.6)
(set-logic UF)
(set-info :source |Benchmarks from the paper: "Extending Sledgehammer with SMT Solvers" by Jasmin Blanchette, Sascha Bohme, and Lawrence C. Paulson, CADE 2011.  Translated to SMT2 by Andrew Reynolds and Morgan Deters.|)
(set-info :category "industrial")
(set-info :status unknown)
(declare-sort S1 0)
(declare-sort S2 0)
(declare-sort S3 0)
(declare-sort S4 0)
(declare-sort S5 0)
(declare-sort S6 0)
(declare-sort S7 0)
(declare-sort S8 0)
(declare-sort S9 0)
(declare-sort S10 0)
(declare-sort S11 0)
(declare-sort S12 0)
(declare-sort S13 0)
(declare-sort S14 0)
(declare-sort S15 0)
(declare-sort S16 0)
(declare-sort S17 0)
(declare-sort S18 0)
(declare-sort S19 0)
(declare-sort S20 0)
(declare-sort S21 0)
(declare-sort S22 0)
(declare-sort S23 0)
(declare-sort S24 0)
(declare-sort S25 0)
(declare-sort S26 0)
(declare-sort S27 0)
(declare-sort S28 0)
(declare-sort S29 0)
(declare-sort S30 0)
(declare-sort S31 0)
(declare-sort S32 0)
(declare-sort S33 0)
(declare-sort S34 0)
(declare-sort S35 0)
(declare-sort S36 0)
(declare-sort S37 0)
(declare-sort S38 0)
(declare-sort S39 0)
(declare-sort S40 0)
(declare-sort S41 0)
(declare-sort S42 0)
(declare-sort S43 0)
(declare-sort S44 0)
(declare-sort S45 0)
(declare-sort S46 0)
(declare-sort S47 0)
(declare-sort S48 0)
(declare-sort S49 0)
(declare-sort S50 0)
(declare-sort S51 0)
(declare-sort S52 0)
(declare-sort S53 0)
(declare-sort S54 0)
(declare-sort S55 0)
(declare-sort S56 0)
(declare-sort S57 0)
(declare-sort S58 0)
(declare-sort S59 0)
(declare-sort S60 0)
(declare-sort S61 0)
(declare-sort S62 0)
(declare-sort S63 0)
(declare-sort S64 0)
(declare-sort S65 0)
(declare-sort S66 0)
(declare-sort S67 0)
(declare-sort S68 0)
(declare-sort S69 0)
(declare-sort S70 0)
(declare-sort S71 0)
(declare-sort S72 0)
(declare-sort S73 0)
(declare-sort S74 0)
(declare-sort S75 0)
(declare-sort S76 0)
(declare-fun f1 () S1)
(declare-fun f2 () S1)
(declare-fun f3 (S3 S2) S1)
(declare-fun f4 () S3)
(declare-fun f5 (S4 S3) S1)
(declare-fun f6 (S5 S2) S4)
(declare-fun f7 () S5)
(declare-fun f8 (S6 S7) S3)
(declare-fun f9 () S6)
(declare-fun f10 () S7)
(declare-fun f11 (S8 S9) S3)
(declare-fun f12 (S10 S9) S8)
(declare-fun f13 (S11 S12) S10)
(declare-fun f14 () S11)
(declare-fun f15 () S12)
(declare-fun f16 () S9)
(declare-fun f17 (S12 S13) S14)
(declare-fun f18 (S15 S12) S14)
(declare-fun f19 (S16 S1) S15)
(declare-fun f20 () S16)
(declare-fun f21 () S12)
(declare-fun f22 (S14 S17) S1)
(declare-fun f23 (S18 S13) S1)
(declare-fun f24 (S19 S13) S18)
(declare-fun f25 () S19)
(declare-fun f26 () S13)
(declare-fun f27 (S20 S2) S12)
(declare-fun f28 () S20)
(declare-fun f29 (S21 S18) S1)
(declare-fun f30 (S22 S13) S21)
(declare-fun f31 () S22)
(declare-fun f32 (S23 S2) S13)
(declare-fun f33 () S23)
(declare-fun f34 (S24 S18) S18)
(declare-fun f35 (S25 S13) S24)
(declare-fun f36 () S25)
(declare-fun f37 () S13)
(declare-fun f38 (S26 S13) S13)
(declare-fun f39 () S26)
(declare-fun f40 () S13)
(declare-fun f41 () S18)
(declare-fun f42 (S9 S13) S12)
(declare-fun f43 (S27 S2) S9)
(declare-fun f44 () S27)
(declare-fun f45 (S29 S28) S1)
(declare-fun f46 () S29)
(declare-fun f47 () S3)
(declare-fun f48 (S31 S30) S1)
(declare-fun f49 () S31)
(declare-fun f50 (S33 S32) S1)
(declare-fun f51 () S33)
(declare-fun f52 () S18)
(declare-fun f53 () S1)
(declare-fun f54 () S2)
(declare-fun f55 (S34 S17) S2)
(declare-fun f56 (S35 S13) S34)
(declare-fun f57 () S35)
(declare-fun f58 (S36 S17) S17)
(declare-fun f59 (S37 S13) S36)
(declare-fun f60 () S37)
(declare-fun f61 (S38 S3) S3)
(declare-fun f62 () S38)
(declare-fun f63 (S39 S32) S32)
(declare-fun f64 (S40 S30) S39)
(declare-fun f65 () S40)
(declare-fun f66 (S42 S41) S41)
(declare-fun f67 (S43 S32) S42)
(declare-fun f68 () S43)
(declare-fun f69 (S44 S7) S7)
(declare-fun f70 (S45 S2) S44)
(declare-fun f71 () S45)
(declare-fun f72 (S47 S46) S46)
(declare-fun f73 (S48 S28) S47)
(declare-fun f74 () S48)
(declare-fun f75 () S49)
(declare-fun f76 (S50 S2) S14)
(declare-fun f77 () S50)
(declare-fun f78 () S13)
(declare-fun f79 () S17)
(declare-fun f80 () S49)
(declare-fun f81 () S23)
(declare-fun f82 (S51 S17) S18)
(declare-fun f83 () S51)
(declare-fun f84 (S52 S31) S1)
(declare-fun f85 (S53 S30) S52)
(declare-fun f86 () S53)
(declare-fun f87 (S54 S32) S31)
(declare-fun f88 () S54)
(declare-fun f89 (S55 S33) S1)
(declare-fun f90 (S56 S32) S55)
(declare-fun f91 () S56)
(declare-fun f92 (S57 S41) S33)
(declare-fun f93 () S57)
(declare-fun f94 (S58 S29) S1)
(declare-fun f95 (S59 S28) S58)
(declare-fun f96 () S59)
(declare-fun f97 (S60 S46) S29)
(declare-fun f98 () S60)
(declare-fun f99 (S61 S2) S38)
(declare-fun f100 () S61)
(declare-fun f101 (S62 S31) S31)
(declare-fun f102 (S63 S30) S62)
(declare-fun f103 () S63)
(declare-fun f104 (S64 S33) S33)
(declare-fun f105 (S65 S32) S64)
(declare-fun f106 () S65)
(declare-fun f107 (S66 S29) S29)
(declare-fun f108 (S67 S28) S66)
(declare-fun f109 () S67)
(declare-fun f110 (S68 S49) S1)
(declare-fun f111 (S69 S49) S68)
(declare-fun f112 () S69)
(declare-fun f113 () S44)
(declare-fun f114 (S70 S7) S46)
(declare-fun f115 () S70)
(declare-fun f116 () S46)
(declare-fun f117 (S71 S2) S49)
(declare-fun f118 () S71)
(declare-fun f119 () S45)
(declare-fun f120 () S37)
(declare-fun f121 () S40)
(declare-fun f122 () S43)
(declare-fun f123 () S48)
(declare-fun f124 () S71)
(declare-fun f125 () S41)
(declare-fun f126 () S32)
(declare-fun f127 () S17)
(declare-fun f128 () S7)
(declare-fun f129 () S3)
(declare-fun f130 () S33)
(declare-fun f131 () S31)
(declare-fun f132 () S29)
(declare-fun f133 (S72 S18) S21)
(declare-fun f134 () S72)
(declare-fun f135 (S73 S29) S58)
(declare-fun f136 () S73)
(declare-fun f137 (S74 S31) S52)
(declare-fun f138 () S74)
(declare-fun f139 (S75 S33) S55)
(declare-fun f140 () S75)
(declare-fun f141 (S76 S3) S4)
(declare-fun f142 () S76)
(declare-fun f143 () S24)
(declare-fun f144 () S66)
(declare-fun f145 () S62)
(declare-fun f146 () S64)
(assert (not (= f1 f2)))
(assert (forall ((?v0 S2)) (= (= (f3 f4 ?v0) f1) (and (= (f5 (f6 f7 ?v0) (f8 f9 f10)) f1) (= (f3 (f11 (f12 (f13 f14 f15) f16) f16) ?v0) f1)))))
(assert (forall ((?v0 S13)) (= (f17 f15 ?v0) (f18 (f19 f20 f2) f21))))
(assert (forall ((?v0 S13) (?v1 S17)) (= (= (f22 (f17 f21 ?v0) ?v1) f1) (= (f23 (f24 f25 f26) ?v0) f1))))
(assert (forall ((?v0 S2) (?v1 S13) (?v2 S17)) (= (= (f22 (f17 (f27 f28 ?v0) ?v1) ?v2) f1) (= (f29 (f30 f31 (f32 f33 ?v0)) (f34 (f35 f36 f37) (f34 (f35 f36 (f38 f39 f40)) f41))) f1))))
(assert (forall ((?v0 S2) (?v1 S13) (?v2 S13) (?v3 S17)) (= (= (f22 (f17 (f42 (f43 f44 ?v0) ?v1) ?v2) ?v3) f1) (= (f32 f33 ?v0) f37))))
(assert (forall ((?v0 S13) (?v1 S13) (?v2 S17)) (= (= (f22 (f17 (f42 f16 ?v0) ?v1) ?v2) f1) false)))
(assert (forall ((?v0 S28)) (= (= (f45 f46 ?v0) f1) false)))
(assert (forall ((?v0 S2)) (= (= (f3 f47 ?v0) f1) false)))
(assert (forall ((?v0 S30)) (= (= (f48 f49 ?v0) f1) false)))
(assert (forall ((?v0 S32)) (= (= (f50 f51 ?v0) f1) false)))
(assert (forall ((?v0 S13)) (= (= (f23 f52 ?v0) f1) false)))
(assert (not (= f53 f1)))
(assert (forall ((?v0 S13) (?v1 S17)) (=> (= f54 (f55 (f56 f57 ?v0) (f58 (f59 f60 f37) ?v1))) (= f53 f1))))
(assert (= (f5 (f6 f7 f54) (f61 f62 f4)) f1))
(assert (forall ((?v0 S2)) (let ((?v_0 (f43 f44 ?v0))) (=> (= (f5 (f6 f7 ?v0) (f8 f9 f10)) f1) (= (f3 (f11 (f12 (f13 f14 (f27 f28 ?v0)) ?v_0) ?v_0) ?v0) f1)))))
(assert (= (f5 (f6 f7 f54) (f8 f9 f10)) f1))
(assert (forall ((?v0 S13) (?v1 S17) (?v2 S13) (?v3 S17)) (= (= (f55 (f56 f57 ?v0) ?v1) (f55 (f56 f57 ?v2) ?v3)) (and (= ?v0 ?v2) (= ?v1 ?v3)))))
(assert (forall ((?v0 S32) (?v1 S30)) (not (= ?v0 (f63 (f64 f65 ?v1) ?v0)))))
(assert (forall ((?v0 S41) (?v1 S32)) (not (= ?v0 (f66 (f67 f68 ?v1) ?v0)))))
(assert (forall ((?v0 S17) (?v1 S13)) (not (= ?v0 (f58 (f59 f60 ?v1) ?v0)))))
(assert (forall ((?v0 S7) (?v1 S2)) (not (= ?v0 (f69 (f70 f71 ?v1) ?v0)))))
(assert (forall ((?v0 S46) (?v1 S28)) (not (= ?v0 (f72 (f73 f74 ?v1) ?v0)))))
(assert (forall ((?v0 S30) (?v1 S32)) (not (= (f63 (f64 f65 ?v0) ?v1) ?v1))))
(assert (forall ((?v0 S32) (?v1 S41)) (not (= (f66 (f67 f68 ?v0) ?v1) ?v1))))
(assert (forall ((?v0 S13) (?v1 S17)) (not (= (f58 (f59 f60 ?v0) ?v1) ?v1))))
(assert (forall ((?v0 S2) (?v1 S7)) (not (= (f69 (f70 f71 ?v0) ?v1) ?v1))))
(assert (forall ((?v0 S28) (?v1 S46)) (not (= (f72 (f73 f74 ?v0) ?v1) ?v1))))
(assert (forall ((?v0 S30) (?v1 S32) (?v2 S30) (?v3 S32)) (= (= (f63 (f64 f65 ?v0) ?v1) (f63 (f64 f65 ?v2) ?v3)) (and (= ?v0 ?v2) (= ?v1 ?v3)))))
(assert (forall ((?v0 S32) (?v1 S41) (?v2 S32) (?v3 S41)) (= (= (f66 (f67 f68 ?v0) ?v1) (f66 (f67 f68 ?v2) ?v3)) (and (= ?v0 ?v2) (= ?v1 ?v3)))))
(assert (forall ((?v0 S13) (?v1 S17) (?v2 S13) (?v3 S17)) (= (= (f58 (f59 f60 ?v0) ?v1) (f58 (f59 f60 ?v2) ?v3)) (and (= ?v0 ?v2) (= ?v1 ?v3)))))
(assert (forall ((?v0 S2) (?v1 S7) (?v2 S2) (?v3 S7)) (= (= (f69 (f70 f71 ?v0) ?v1) (f69 (f70 f71 ?v2) ?v3)) (and (= ?v0 ?v2) (= ?v1 ?v3)))))
(assert (forall ((?v0 S28) (?v1 S46) (?v2 S28) (?v3 S46)) (= (= (f72 (f73 f74 ?v0) ?v1) (f72 (f73 f74 ?v2) ?v3)) (and (= ?v0 ?v2) (= ?v1 ?v3)))))
(assert (forall ((?v0 S13)) (= (= f37 ?v0) (= ?v0 f37))))
(assert (forall ((?v0 S49)) (= (= f75 ?v0) (= ?v0 f75))))
(assert (forall ((?v0 S12) (?v1 S9) (?v2 S9) (?v3 S13) (?v4 S17)) (= (= (f3 (f11 (f12 (f13 f14 ?v0) ?v1) ?v2) (f55 (f56 f57 ?v3) ?v4)) f1) (= (f22 (f17 ?v0 ?v3) ?v4) f1))))
(assert (forall ((?v0 S1) (?v1 S12) (?v2 S13) (?v3 S17)) (= (= (f22 (f18 (f19 f20 ?v0) ?v1) (f58 (f59 f60 ?v2) ?v3)) f1) (= (f22 (f17 ?v1 ?v2) ?v3) f1))))
(assert (= (f22 (f76 f77 f54) (f58 (f59 f60 f78) f79)) f1))
(assert (not (= f26 f37)))
(assert (not (= f37 f26)))
(assert (not (= f75 f80)))
(assert (not (= f26 f37)))
(assert (not (= f80 f75)))
(assert (exists ((?v0 S13)) (forall ((?v1 S2)) (=> (= (f5 (f6 f7 ?v1) (f8 f9 f10)) f1) (= (f22 (f76 f77 ?v1) (f58 (f59 f60 ?v0) f79)) f1)))))
(assert (forall ((?v0 S2)) (=> (= (f5 (f6 f7 ?v0) (f8 f9 f10)) f1) (= (f22 (f76 f77 ?v0) (f58 (f59 f60 f78) f79)) f1))))
(assert (forall ((?v0 S2)) (=> (= (f5 (f6 f7 ?v0) (f8 f9 f10)) f1) (not (= (f32 f81 ?v0) f26)))))
(assert (=> (forall ((?v0 S13)) (=> (forall ((?v1 S2)) (=> (= (f5 (f6 f7 ?v1) (f8 f9 f10)) f1) (= (f22 (f76 f77 ?v1) (f58 (f59 f60 ?v0) f79)) f1))) false)) false))
(assert (forall ((?v0 S49)) (= (= f80 ?v0) (= ?v0 f80))))
(assert (forall ((?v0 S13)) (= (= f26 ?v0) (= ?v0 f26))))
(assert (forall ((?v0 S2) (?v1 S2) (?v2 S7)) (let ((?v_0 (f6 f7 ?v0))) (=> (= (f5 ?v_0 (f8 f9 (f69 (f70 f71 ?v1) ?v2))) f1) (or (= ?v0 ?v1) (= (f5 ?v_0 (f8 f9 ?v2)) f1))))))
(assert (forall ((?v0 S13) (?v1 S13) (?v2 S17)) (let ((?v_0 (f30 f31 ?v0))) (=> (= (f29 ?v_0 (f82 f83 (f58 (f59 f60 ?v1) ?v2))) f1) (or (= ?v0 ?v1) (= (f29 ?v_0 (f82 f83 ?v2)) f1))))))
(assert (forall ((?v0 S30) (?v1 S30) (?v2 S32)) (let ((?v_0 (f85 f86 ?v0))) (=> (= (f84 ?v_0 (f87 f88 (f63 (f64 f65 ?v1) ?v2))) f1) (or (= ?v0 ?v1) (= (f84 ?v_0 (f87 f88 ?v2)) f1))))))
(assert (forall ((?v0 S32) (?v1 S32) (?v2 S41)) (let ((?v_0 (f90 f91 ?v0))) (=> (= (f89 ?v_0 (f92 f93 (f66 (f67 f68 ?v1) ?v2))) f1) (or (= ?v0 ?v1) (= (f89 ?v_0 (f92 f93 ?v2)) f1))))))
(assert (forall ((?v0 S28) (?v1 S28) (?v2 S46)) (let ((?v_0 (f95 f96 ?v0))) (=> (= (f94 ?v_0 (f97 f98 (f72 (f73 f74 ?v1) ?v2))) f1) (or (= ?v0 ?v1) (= (f94 ?v_0 (f97 f98 ?v2)) f1))))))
(assert (= (f23 (f24 f25 f26) f37) f1))
(assert (forall ((?v0 S2) (?v1 S7)) (= (f8 f9 (f69 (f70 f71 ?v0) ?v1)) (f61 (f99 f100 ?v0) (f8 f9 ?v1)))))
(assert (forall ((?v0 S13) (?v1 S17)) (= (f82 f83 (f58 (f59 f60 ?v0) ?v1)) (f34 (f35 f36 ?v0) (f82 f83 ?v1)))))
(assert (forall ((?v0 S30) (?v1 S32)) (= (f87 f88 (f63 (f64 f65 ?v0) ?v1)) (f101 (f102 f103 ?v0) (f87 f88 ?v1)))))
(assert (forall ((?v0 S32) (?v1 S41)) (= (f92 f93 (f66 (f67 f68 ?v0) ?v1)) (f104 (f105 f106 ?v0) (f92 f93 ?v1)))))
(assert (forall ((?v0 S28) (?v1 S46)) (= (f97 f98 (f72 (f73 f74 ?v0) ?v1)) (f107 (f108 f109 ?v0) (f97 f98 ?v1)))))
(assert (= (f23 (f24 f25 f26) f37) f1))
(assert (= (f110 (f111 f112 f80) f75) f1))
(assert (not (= (f23 (f24 f25 f37) f26) f1)))
(assert (not (= (f110 (f111 f112 f75) f80) f1)))
(assert (forall ((?v0 S7) (?v1 S17)) (=> (forall ((?v2 S2)) (=> (= (f5 (f6 f7 ?v2) (f8 f9 ?v0)) f1) (not (= (f32 f33 ?v2) f26)))) (= (exists ((?v2 S13)) (forall ((?v3 S2)) (=> (= (f5 (f6 f7 ?v3) (f8 f9 (f69 f113 ?v0))) f1) (= (f22 (f76 f77 ?v3) (f58 (f59 f60 ?v2) ?v1)) f1)))) (exists ((?v2 S13)) (forall ((?v3 S2)) (=> (= (f5 (f6 f7 ?v3) (f8 f9 ?v0)) f1) (= (f22 (f76 f77 ?v3) (f58 (f59 f60 ?v2) ?v1)) f1))))))))
(assert (not (= (f114 f115 f10) f116)))
(assert (forall ((?v0 S13) (?v1 S17)) (= (f117 f118 (f55 (f56 f57 ?v0) ?v1)) f80)))
(assert (forall ((?v0 S2) (?v1 S7)) (=> (not (= (f5 (f6 f7 ?v0) (f8 f9 ?v1)) f1)) (= (f69 (f70 f119 ?v0) ?v1) (f69 (f70 f71 ?v0) ?v1)))))
(assert (forall ((?v0 S13) (?v1 S17)) (=> (not (= (f29 (f30 f31 ?v0) (f82 f83 ?v1)) f1)) (= (f58 (f59 f120 ?v0) ?v1) (f58 (f59 f60 ?v0) ?v1)))))
(assert (forall ((?v0 S30) (?v1 S32)) (=> (not (= (f84 (f85 f86 ?v0) (f87 f88 ?v1)) f1)) (= (f63 (f64 f121 ?v0) ?v1) (f63 (f64 f65 ?v0) ?v1)))))
(assert (forall ((?v0 S32) (?v1 S41)) (=> (not (= (f89 (f90 f91 ?v0) (f92 f93 ?v1)) f1)) (= (f66 (f67 f122 ?v0) ?v1) (f66 (f67 f68 ?v0) ?v1)))))
(assert (forall ((?v0 S28) (?v1 S46)) (=> (not (= (f94 (f95 f96 ?v0) (f97 f98 ?v1)) f1)) (= (f72 (f73 f123 ?v0) ?v1) (f72 (f73 f74 ?v0) ?v1)))))
(assert (forall ((?v0 S2) (?v1 S7)) (= (f69 (f70 f119 ?v0) ?v1) (ite (= (f5 (f6 f7 ?v0) (f8 f9 ?v1)) f1) ?v1 (f69 (f70 f71 ?v0) ?v1)))))
(assert (forall ((?v0 S13) (?v1 S17)) (= (f58 (f59 f120 ?v0) ?v1) (ite (= (f29 (f30 f31 ?v0) (f82 f83 ?v1)) f1) ?v1 (f58 (f59 f60 ?v0) ?v1)))))
(assert (forall ((?v0 S30) (?v1 S32)) (= (f63 (f64 f121 ?v0) ?v1) (ite (= (f84 (f85 f86 ?v0) (f87 f88 ?v1)) f1) ?v1 (f63 (f64 f65 ?v0) ?v1)))))
(assert (forall ((?v0 S32) (?v1 S41)) (= (f66 (f67 f122 ?v0) ?v1) (ite (= (f89 (f90 f91 ?v0) (f92 f93 ?v1)) f1) ?v1 (f66 (f67 f68 ?v0) ?v1)))))
(assert (forall ((?v0 S28) (?v1 S46)) (= (f72 (f73 f123 ?v0) ?v1) (ite (= (f94 (f95 f96 ?v0) (f97 f98 ?v1)) f1) ?v1 (f72 (f73 f74 ?v0) ?v1)))))
(assert (forall ((?v0 S13) (?v1 S17)) (= (f117 f124 (f55 (f56 f57 ?v0) ?v1)) f80)))
(assert (forall ((?v0 S32)) (= (f66 (f67 f122 ?v0) f125) (f66 (f67 f68 ?v0) f125))))
(assert (forall ((?v0 S30)) (= (f63 (f64 f121 ?v0) f126) (f63 (f64 f65 ?v0) f126))))
(assert (forall ((?v0 S28)) (= (f72 (f73 f123 ?v0) f116) (f72 (f73 f74 ?v0) f116))))
(assert (forall ((?v0 S13)) (= (f58 (f59 f120 ?v0) f127) (f58 (f59 f60 ?v0) f127))))
(assert (forall ((?v0 S2)) (= (f69 (f70 f119 ?v0) f128) (f69 (f70 f71 ?v0) f128))))
(assert (forall ((?v0 S32) (?v1 S41)) (not (= f125 (f66 (f67 f68 ?v0) ?v1)))))
(assert (forall ((?v0 S30) (?v1 S32)) (not (= f126 (f63 (f64 f65 ?v0) ?v1)))))
(assert (forall ((?v0 S28) (?v1 S46)) (not (= f116 (f72 (f73 f74 ?v0) ?v1)))))
(assert (forall ((?v0 S13) (?v1 S17)) (not (= f127 (f58 (f59 f60 ?v0) ?v1)))))
(assert (forall ((?v0 S2) (?v1 S7)) (not (= f128 (f69 (f70 f71 ?v0) ?v1)))))
(assert (forall ((?v0 S32) (?v1 S41)) (not (= (f66 (f67 f68 ?v0) ?v1) f125))))
(assert (forall ((?v0 S30) (?v1 S32)) (not (= (f63 (f64 f65 ?v0) ?v1) f126))))
(assert (forall ((?v0 S28) (?v1 S46)) (not (= (f72 (f73 f74 ?v0) ?v1) f116))))
(assert (forall ((?v0 S13) (?v1 S17)) (not (= (f58 (f59 f60 ?v0) ?v1) f127))))
(assert (forall ((?v0 S2) (?v1 S7)) (not (= (f69 (f70 f71 ?v0) ?v1) f128))))
(assert (forall ((?v0 S13) (?v1 S13)) (=> (not (= ?v0 ?v1)) (=> (=> (= (f23 (f24 f25 ?v0) ?v1) f1) false) (=> (=> (= (f23 (f24 f25 ?v1) ?v0) f1) false) false)))))
(assert (forall ((?v0 S13) (?v1 S13)) (or (= (f23 (f24 f25 ?v0) ?v1) f1) (or (= ?v0 ?v1) (= (f23 (f24 f25 ?v1) ?v0) f1)))))
(assert (forall ((?v0 S1) (?v1 S12)) (= (= (f22 (f18 (f19 f20 ?v0) ?v1) f127) f1) (= ?v0 f1))))
(assert (forall ((?v0 S2) (?v1 S7)) (= (f8 f9 (f69 (f70 f119 ?v0) ?v1)) (f61 (f99 f100 ?v0) (f8 f9 ?v1)))))
(assert (forall ((?v0 S13) (?v1 S17)) (= (f82 f83 (f58 (f59 f120 ?v0) ?v1)) (f34 (f35 f36 ?v0) (f82 f83 ?v1)))))
(assert (forall ((?v0 S28) (?v1 S46)) (= (f97 f98 (f72 (f73 f123 ?v0) ?v1)) (f107 (f108 f109 ?v0) (f97 f98 ?v1)))))
(assert (forall ((?v0 S30) (?v1 S32)) (= (f87 f88 (f63 (f64 f121 ?v0) ?v1)) (f101 (f102 f103 ?v0) (f87 f88 ?v1)))))
(assert (forall ((?v0 S32) (?v1 S41)) (= (f92 f93 (f66 (f67 f122 ?v0) ?v1)) (f104 (f105 f106 ?v0) (f92 f93 ?v1)))))
(assert (forall ((?v0 S13) (?v1 S17)) (= (f32 f81 (f55 (f56 f57 ?v0) ?v1)) f37)))
(assert (forall ((?v0 S2) (?v1 S7)) (=> (= (f5 (f6 f7 ?v0) (f8 f9 ?v1)) f1) (= (f69 (f70 f119 ?v0) ?v1) ?v1))))
(assert (forall ((?v0 S13) (?v1 S17)) (=> (= (f29 (f30 f31 ?v0) (f82 f83 ?v1)) f1) (= (f58 (f59 f120 ?v0) ?v1) ?v1))))
(assert (forall ((?v0 S28) (?v1 S46)) (=> (= (f94 (f95 f96 ?v0) (f97 f98 ?v1)) f1) (= (f72 (f73 f123 ?v0) ?v1) ?v1))))
(assert (forall ((?v0 S30) (?v1 S32)) (=> (= (f84 (f85 f86 ?v0) (f87 f88 ?v1)) f1) (= (f63 (f64 f121 ?v0) ?v1) ?v1))))
(assert (forall ((?v0 S32) (?v1 S41)) (=> (= (f89 (f90 f91 ?v0) (f92 f93 ?v1)) f1) (= (f66 (f67 f122 ?v0) ?v1) ?v1))))
(assert (forall ((?v0 S7)) (= (= (f8 f9 ?v0) f129) (= ?v0 f128))))
(assert (forall ((?v0 S41)) (= (= (f92 f93 ?v0) f130) (= ?v0 f125))))
(assert (forall ((?v0 S32)) (= (= (f87 f88 ?v0) f131) (= ?v0 f126))))
(assert (forall ((?v0 S46)) (= (= (f97 f98 ?v0) f132) (= ?v0 f116))))
(assert (forall ((?v0 S17)) (= (= (f82 f83 ?v0) f41) (= ?v0 f127))))
(assert (forall ((?v0 S7)) (= (= f129 (f8 f9 ?v0)) (= ?v0 f128))))
(assert (forall ((?v0 S41)) (= (= f130 (f92 f93 ?v0)) (= ?v0 f125))))
(assert (forall ((?v0 S32)) (= (= f131 (f87 f88 ?v0)) (= ?v0 f126))))
(assert (forall ((?v0 S46)) (= (= f132 (f97 f98 ?v0)) (= ?v0 f116))))
(assert (forall ((?v0 S17)) (= (= f41 (f82 f83 ?v0)) (= ?v0 f127))))
(assert (= (f8 f9 f128) f129))
(assert (= (f92 f93 f125) f130))
(assert (= (f87 f88 f126) f131))
(assert (= (f97 f98 f116) f132))
(assert (= (f82 f83 f127) f41))
(assert (= (= (f23 (f24 f25 f40) f26) f1) true))
(assert (forall ((?v0 S13) (?v1 S18) (?v2 S13)) (let ((?v_0 (f30 f31 ?v0))) (=> (=> (not (= (f29 ?v_0 ?v1) f1)) (= ?v0 ?v2)) (= (f29 ?v_0 (f34 (f35 f36 ?v2) ?v1)) f1)))))
(assert (forall ((?v0 S2) (?v1 S3) (?v2 S2)) (let ((?v_0 (f6 f7 ?v0))) (=> (=> (not (= (f5 ?v_0 ?v1) f1)) (= ?v0 ?v2)) (= (f5 ?v_0 (f61 (f99 f100 ?v2) ?v1)) f1)))))
(assert (forall ((?v0 S28) (?v1 S29) (?v2 S28)) (let ((?v_0 (f95 f96 ?v0))) (=> (=> (not (= (f94 ?v_0 ?v1) f1)) (= ?v0 ?v2)) (= (f94 ?v_0 (f107 (f108 f109 ?v2) ?v1)) f1)))))
(assert (forall ((?v0 S32) (?v1 S33) (?v2 S32)) (let ((?v_0 (f90 f91 ?v0))) (=> (=> (not (= (f89 ?v_0 ?v1) f1)) (= ?v0 ?v2)) (= (f89 ?v_0 (f104 (f105 f106 ?v2) ?v1)) f1)))))
(assert (forall ((?v0 S30) (?v1 S31) (?v2 S30)) (let ((?v_0 (f85 f86 ?v0))) (=> (=> (not (= (f84 ?v_0 ?v1) f1)) (= ?v0 ?v2)) (= (f84 ?v_0 (f101 (f102 f103 ?v2) ?v1)) f1)))))
(assert (forall ((?v0 S13) (?v1 S13) (?v2 S18)) (let ((?v_0 (f30 f31 ?v0))) (=> (= (f29 ?v_0 (f34 (f35 f36 ?v1) ?v2)) f1) (=> (=> (= ?v0 ?v1) false) (=> (=> (= (f29 ?v_0 ?v2) f1) false) false))))))
(assert (forall ((?v0 S2) (?v1 S2) (?v2 S3)) (let ((?v_0 (f6 f7 ?v0))) (=> (= (f5 ?v_0 (f61 (f99 f100 ?v1) ?v2)) f1) (=> (=> (= ?v0 ?v1) false) (=> (=> (= (f5 ?v_0 ?v2) f1) false) false))))))
(assert (forall ((?v0 S28) (?v1 S28) (?v2 S29)) (let ((?v_0 (f95 f96 ?v0))) (=> (= (f94 ?v_0 (f107 (f108 f109 ?v1) ?v2)) f1) (=> (=> (= ?v0 ?v1) false) (=> (=> (= (f94 ?v_0 ?v2) f1) false) false))))))
(assert (forall ((?v0 S32) (?v1 S32) (?v2 S33)) (let ((?v_0 (f90 f91 ?v0))) (=> (= (f89 ?v_0 (f104 (f105 f106 ?v1) ?v2)) f1) (=> (=> (= ?v0 ?v1) false) (=> (=> (= (f89 ?v_0 ?v2) f1) false) false))))))
(assert (forall ((?v0 S30) (?v1 S30) (?v2 S31)) (let ((?v_0 (f85 f86 ?v0))) (=> (= (f84 ?v_0 (f101 (f102 f103 ?v1) ?v2)) f1) (=> (=> (= ?v0 ?v1) false) (=> (=> (= (f84 ?v_0 ?v2) f1) false) false))))))
(assert (forall ((?v0 S13) (?v1 S13)) (= (= (f23 (f24 f25 (f38 f39 ?v0)) (f38 f39 ?v1)) f1) (= (f23 (f24 f25 ?v0) ?v1) f1))))
(assert (forall ((?v0 S49)) (=> (= (f110 (f111 f112 ?v0) f80) f1) false)))
(assert (forall ((?v0 S41)) (= (not (= ?v0 f125)) (exists ((?v1 S32) (?v2 S41)) (= ?v0 (f66 (f67 f68 ?v1) ?v2))))))
(assert (forall ((?v0 S32)) (= (not (= ?v0 f126)) (exists ((?v1 S30) (?v2 S32)) (= ?v0 (f63 (f64 f65 ?v1) ?v2))))))
(assert (forall ((?v0 S46)) (= (not (= ?v0 f116)) (exists ((?v1 S28) (?v2 S46)) (= ?v0 (f72 (f73 f74 ?v1) ?v2))))))
(assert (forall ((?v0 S17)) (= (not (= ?v0 f127)) (exists ((?v1 S13) (?v2 S17)) (= ?v0 (f58 (f59 f60 ?v1) ?v2))))))
(assert (forall ((?v0 S7)) (= (not (= ?v0 f128)) (exists ((?v1 S2) (?v2 S7)) (= ?v0 (f69 (f70 f71 ?v1) ?v2))))))
(assert (forall ((?v0 S13)) (=> (= (f29 (f30 f31 ?v0) f41) f1) false)))
(assert (forall ((?v0 S2)) (=> (= (f5 (f6 f7 ?v0) f129) f1) false)))
(assert (forall ((?v0 S28)) (=> (= (f94 (f95 f96 ?v0) f132) f1) false)))
(assert (forall ((?v0 S32)) (=> (= (f89 (f90 f91 ?v0) f130) f1) false)))
(assert (forall ((?v0 S30)) (=> (= (f84 (f85 f86 ?v0) f131) f1) false)))
(assert (forall ((?v0 S49) (?v1 S49) (?v2 S69)) (let ((?v_0 (= (f110 (f111 ?v2 ?v1) ?v0) f1))) (=> (=> (= (f110 (f111 f112 ?v0) ?v1) f1) ?v_0) (=> (=> (= ?v0 ?v1) ?v_0) (=> (=> (= (f110 (f111 f112 ?v1) ?v0) f1) ?v_0) ?v_0))))))
(assert (forall ((?v0 S49) (?v1 S49)) (=> (= (f110 (f111 f112 ?v0) ?v1) f1) (not (= ?v0 ?v1)))))
(assert (forall ((?v0 S49) (?v1 S49)) (=> (= (f110 (f111 f112 ?v0) ?v1) f1) (not (= ?v1 ?v0)))))
(assert (forall ((?v0 S49)) (=> (= (f110 (f111 f112 ?v0) ?v0) f1) false)))
(assert (forall ((?v0 S49) (?v1 S49)) (=> (not (= ?v0 ?v1)) (=> (=> (= (f110 (f111 f112 ?v0) ?v1) f1) false) (=> (=> (= (f110 (f111 f112 ?v1) ?v0) f1) false) false)))))
(assert (forall ((?v0 S49) (?v1 S49)) (= (not (= ?v0 ?v1)) (or (= (f110 (f111 f112 ?v0) ?v1) f1) (= (f110 (f111 f112 ?v1) ?v0) f1)))))
(assert (forall ((?v0 S49)) (not (= (f110 (f111 f112 ?v0) ?v0) f1))))
(assert (forall ((?v0 S18)) (not (= (f29 (f133 f134 ?v0) f41) f1))))
(assert (forall ((?v0 S29)) (not (= (f94 (f135 f136 ?v0) f132) f1))))
(assert (forall ((?v0 S31)) (not (= (f84 (f137 f138 ?v0) f131) f1))))
(assert (forall ((?v0 S33)) (not (= (f89 (f139 f140 ?v0) f130) f1))))
(assert (forall ((?v0 S3)) (not (= (f5 (f141 f142 ?v0) f129) f1))))
(assert (= f129 (f61 f62 f47)))
(assert (= f41 (f34 f143 f52)))
(assert (= f132 (f107 f144 f46)))
(assert (= f131 (f101 f145 f49)))
(assert (= f130 (f104 f146 f51)))
(assert (forall ((?v0 S18)) (= (forall ((?v1 S13)) (not (= (f29 (f30 f31 ?v1) ?v0) f1))) (= ?v0 f41))))
(assert (forall ((?v0 S3)) (= (forall ((?v1 S2)) (not (= (f5 (f6 f7 ?v1) ?v0) f1))) (= ?v0 f129))))
(assert (forall ((?v0 S29)) (= (forall ((?v1 S28)) (not (= (f94 (f95 f96 ?v1) ?v0) f1))) (= ?v0 f132))))
(assert (forall ((?v0 S33)) (= (forall ((?v1 S32)) (not (= (f89 (f90 f91 ?v1) ?v0) f1))) (= ?v0 f130))))
(assert (forall ((?v0 S31)) (= (forall ((?v1 S30)) (not (= (f84 (f85 f86 ?v1) ?v0) f1))) (= ?v0 f131))))
(assert (forall ((?v0 S18)) (= (exists ((?v1 S13)) (= (f29 (f30 f31 ?v1) ?v0) f1)) (not (= ?v0 f41)))))
(assert (forall ((?v0 S3)) (= (exists ((?v1 S2)) (= (f5 (f6 f7 ?v1) ?v0) f1)) (not (= ?v0 f129)))))
(assert (forall ((?v0 S29)) (= (exists ((?v1 S28)) (= (f94 (f95 f96 ?v1) ?v0) f1)) (not (= ?v0 f132)))))
(assert (forall ((?v0 S33)) (= (exists ((?v1 S32)) (= (f89 (f90 f91 ?v1) ?v0) f1)) (not (= ?v0 f130)))))
(assert (forall ((?v0 S31)) (= (exists ((?v1 S30)) (= (f84 (f85 f86 ?v1) ?v0) f1)) (not (= ?v0 f131)))))
(assert (forall ((?v0 S18)) (= (exists ((?v1 S13)) (and (= (f29 (f30 f31 ?v1) f41) f1) (= (f23 ?v0 ?v1) f1))) false)))
(assert (forall ((?v0 S3)) (= (exists ((?v1 S2)) (and (= (f5 (f6 f7 ?v1) f129) f1) (= (f3 ?v0 ?v1) f1))) false)))
(assert (forall ((?v0 S29)) (= (exists ((?v1 S28)) (and (= (f94 (f95 f96 ?v1) f132) f1) (= (f45 ?v0 ?v1) f1))) false)))
(assert (forall ((?v0 S33)) (= (exists ((?v1 S32)) (and (= (f89 (f90 f91 ?v1) f130) f1) (= (f50 ?v0 ?v1) f1))) false)))
(assert (forall ((?v0 S31)) (= (exists ((?v1 S30)) (and (= (f84 (f85 f86 ?v1) f131) f1) (= (f48 ?v0 ?v1) f1))) false)))
(assert (forall ((?v0 S18)) (= (forall ((?v1 S13)) (=> (= (f29 (f30 f31 ?v1) f41) f1) (= (f23 ?v0 ?v1) f1))) true)))
(assert (forall ((?v0 S3)) (= (forall ((?v1 S2)) (=> (= (f5 (f6 f7 ?v1) f129) f1) (= (f3 ?v0 ?v1) f1))) true)))
(assert (forall ((?v0 S29)) (= (forall ((?v1 S28)) (=> (= (f94 (f95 f96 ?v1) f132) f1) (= (f45 ?v0 ?v1) f1))) true)))
(assert (forall ((?v0 S33)) (= (forall ((?v1 S32)) (=> (= (f89 (f90 f91 ?v1) f130) f1) (= (f50 ?v0 ?v1) f1))) true)))
(assert (forall ((?v0 S31)) (= (forall ((?v1 S30)) (=> (= (f84 (f85 f86 ?v1) f131) f1) (= (f48 ?v0 ?v1) f1))) true)))
(check-sat)
(exit)
